
Gurobi 11.0.3 (linux64) logging started Mon Aug 25 15:03:27 2025

Set parameter LogFile to value "/home/yihong/Coding/OR_SUC/SUC_epstheta_results_bigM100000_thread4/case24_ieee_rts_theta0.1_epsilon0.1_gurobi_seed40000_num_gen100_N_WDR50_load_scaling_factor1_proposed_eps_T6quadra_cost_bc1.01.txt"
Set parameter TimeLimit to value 3600
Gurobi Optimizer version 11.0.3 build v11.0.3rc0 (linux64 - "Ubuntu 20.04.6 LTS")

CPU model: AMD EPYC 7532 32-Core Processor, instruction set [SSE2|AVX|AVX2]
Thread count: 64 physical cores, 128 logical processors, using up to 4 threads

Academic license 2399124 - for non-commercial use only - registered to yi___@ed.ac.uk
Optimize a model with 13966 rows, 7491 columns and 327526 nonzeros
Model fingerprint: 0x7cd58fc5
Model has 600 quadratic constraints
Variable types: 6891 continuous, 600 integer (600 binary)
Coefficient statistics:
  Matrix range     [3e-04, 2e+03]
  QMatrix range    [2e-03, 8e-03]
  QLMatrix range   [5e-01, 6e+01]
  Objective range  [1e+00, 1e+00]
  Bounds range     [1e+00, 1e+00]
  RHS range        [1e+00, 9e+03]
Presolve removed 11458 rows and 3272 columns
Presolve time: 0.08s
Presolved: 2508 rows, 4219 columns, 13805 nonzeros
Presolved model has 600 quadratic constraint(s)
Variable types: 3619 continuous, 600 integer (600 binary)

Root relaxation: objective 7.926029e+03, 2047 iterations, 0.03 seconds (0.03 work units)

    Nodes    |    Current Node    |     Objective Bounds      |     Work
 Expl Unexpl |  Obj  Depth IntInf | Incumbent    BestBd   Gap | It/Node Time

     0     0 7926.02878    0   12          - 7926.02878      -     -    0s
     0     0 120561.590    0  162          - 120561.590      -     -    0s
     0     0 120566.076    0  162          - 120566.076      -     -    0s
     0     0 193055.500    0  106          - 193055.500      -     -    0s
     0     0 193058.338    0  108          - 193058.338      -     -    0s
     0     0 193107.692    0   44          - 193107.692      -     -    0s
     0     0 193108.065    0   44          - 193108.065      -     -    0s
     0     0 193108.065    0   44          - 193108.065      -     -    0s
     0     0 193108.439    0   44          - 193108.439      -     -    0s
     0     2 193108.439    0   44          - 193108.439      -     -    0s
H   72    73                    193158.94938 193109.892  0.03%  14.9    1s
*   72    73              23    193158.94938 193109.892  0.03%  15.0    1s

Cutting planes:
  Gomory: 17
  Implied bound: 148
  MIR: 58
  Flow cover: 143

Explored 74 nodes (5957 simplex iterations) in 1.43 seconds (1.21 work units)
Thread count was 4 (of 128 available processors)

Solution count 2: 193159 193159 

Optimal solution found (tolerance 1.00e-03)
Warning: max constraint violation (1.4889e-07) exceeds tolerance
Best objective 1.931589493835e+05, best bound 1.931098924493e+05, gap 0.0254%

Gurobi 11.0.3 (linux64) logging started Mon Aug 25 15:03:28 2025

Set parameter LogFile to value "/home/yihong/Coding/OR_SUC/SUC_epstheta_results_bigM100000_thread4/case24_ieee_rts_theta0.1_epsilon0.1_gurobi_seed40000_num_gen100_N_WDR50_load_scaling_factor1_proposed_eps_T6quadra_cost_bc1.01.txt"
Set parameter TimeLimit to value 3600
Gurobi Optimizer version 11.0.3 build v11.0.3rc0 (linux64 - "Ubuntu 20.04.6 LTS")

CPU model: AMD EPYC 7532 32-Core Processor, instruction set [SSE2|AVX|AVX2]
Thread count: 64 physical cores, 128 logical processors, using up to 4 threads

Academic license 2399124 - for non-commercial use only - registered to yi___@ed.ac.uk
Optimize a model with 13966 rows, 7492 columns and 329335 nonzeros
Model fingerprint: 0xf1e7d65e
Model has 601 quadratic constraints
Variable types: 6892 continuous, 600 integer (600 binary)
Coefficient statistics:
  Matrix range     [3e-04, 2e+03]
  QMatrix range    [2e-03, 5e+01]
  QLMatrix range   [5e-01, 6e+01]
  Objective range  [1e+00, 1e+00]
  Bounds range     [1e-01, 1e+00]
  RHS range        [1e+00, 2e+05]
  QRHS range       [5e+00, 5e+00]
Presolve removed 10474 rows and 2776 columns
Presolve time: 0.09s
Presolved: 4094 rows, 5316 columns, 21173 nonzeros
Presolved model has 600 quadratic constraint(s)
Presolved model has 1 bilinear constraint(s)

Solving non-convex MIQCP

Variable types: 4714 continuous, 602 integer (602 binary)

Root relaxation: objective 1.504417e-03, 4992 iterations, 0.22 seconds (0.20 work units)

    Nodes    |    Current Node    |     Objective Bounds      |     Work
 Expl Unexpl |  Obj  Depth IntInf | Incumbent    BestBd   Gap | It/Node Time

     0     0    0.00150    0   11          -    0.00150      -     -    0s
     0     0    0.00151    0   13          -    0.00151      -     -    0s
     0     0    0.00151    0   13          -    0.00151      -     -    0s
H    0     0                       0.0223352    0.00151  93.3%     -    0s
     0     0    0.02117    0   13    0.02234    0.02117  5.23%     -    0s
     0     0    0.02117    0   13    0.02234    0.02117  5.23%     -    1s
     0     0    0.02117    0   13    0.02234    0.02117  5.21%     -    1s
     0     0    0.02117    0   13    0.02234    0.02117  5.20%     -    1s
     0     0    0.02118    0   13    0.02234    0.02118  5.18%     -    1s
     0     0    0.02118    0   13    0.02234    0.02118  5.16%     -    1s
     0     0    0.02119    0   13    0.02234    0.02119  5.13%     -    1s
     0     0    0.02119    0   13    0.02234    0.02119  5.13%     -    1s
     0     0    0.02119    0   13    0.02234    0.02119  5.13%     -    1s
     0     0    0.02120    0   13    0.02234    0.02120  5.10%     -    1s
H    0     0                       0.0214895    0.02120  1.36%     -    1s
     0     2    0.02123    0   13    0.02149    0.02123  1.22%     -    1s
H   40    10                       0.0213658    0.02128  0.40%  22.0    1s
*   40    10               7       0.0213658    0.02128  0.40%  22.4    1s

Cutting planes:
  Gomory: 1
  Implied bound: 8
  MIR: 2
  RLT: 8

Explored 62 nodes (6920 simplex iterations) in 2.19 seconds (1.72 work units)
Thread count was 4 (of 128 available processors)

Solution count 3: 0.0213658 0.0214895 0.0223352 

Optimal solution found (tolerance 1.00e-03)
Warning: max constraint violation (4.5504e-09) exceeds tolerance
Best objective 2.136581504191e-02, best bound 2.136154230697e-02, gap 0.0200%
